;test regex .{31}.*[xX]\x20[pP]\x20_\x20[pP]\x20[rR]\x20[oO]\x20[xX]\x20[iI]\x20[eE]\x20[dD]\x20[mM]\x20[eE]\x20[tT]\x20[aA]\x20[dD]\x20[aA]\x20[tT]\x20[aA]\x20
(declare-const X String)
(assert (str.in_re X (re.++ ((_ re.loop 31 31) (re.diff re.allchar (str.to_re "\n"))) (re.++ (re.* (re.diff re.allchar (str.to_re "\n"))) (re.++ (re.union (str.to_re "x") (str.to_re "X")) (re.++ (str.to_re "\u{20}") (re.++ (re.union (str.to_re "p") (str.to_re "P")) (re.++ (str.to_re "\u{20}") (re.++ (str.to_re "_") (re.++ (str.to_re "\u{20}") (re.++ (re.union (str.to_re "p") (str.to_re "P")) (re.++ (str.to_re "\u{20}") (re.++ (re.union (str.to_re "r") (str.to_re "R")) (re.++ (str.to_re "\u{20}") (re.++ (re.union (str.to_re "o") (str.to_re "O")) (re.++ (str.to_re "\u{20}") (re.++ (re.union (str.to_re "x") (str.to_re "X")) (re.++ (str.to_re "\u{20}") (re.++ (re.union (str.to_re "i") (str.to_re "I")) (re.++ (str.to_re "\u{20}") (re.++ (re.union (str.to_re "e") (str.to_re "E")) (re.++ (str.to_re "\u{20}") (re.++ (re.union (str.to_re "d") (str.to_re "D")) (re.++ (str.to_re "\u{20}") (re.++ (re.union (str.to_re "m") (str.to_re "M")) (re.++ (str.to_re "\u{20}") (re.++ (re.union (str.to_re "e") (str.to_re "E")) (re.++ (str.to_re "\u{20}") (re.++ (re.union (str.to_re "t") (str.to_re "T")) (re.++ (str.to_re "\u{20}") (re.++ (re.union (str.to_re "a") (str.to_re "A")) (re.++ (str.to_re "\u{20}") (re.++ (re.union (str.to_re "d") (str.to_re "D")) (re.++ (str.to_re "\u{20}") (re.++ (re.union (str.to_re "a") (str.to_re "A")) (re.++ (str.to_re "\u{20}") (re.++ (re.union (str.to_re "t") (str.to_re "T")) (re.++ (str.to_re "\u{20}") (re.++ (re.union (str.to_re "a") (str.to_re "A")) (str.to_re "\u{20}"))))))))))))))))))))))))))))))))))))))))
; sanitize danger characters:  < > ' " &
(assert (not (str.in_re X (re.++ re.all (re.union (str.to_re "\u{3c}") (str.to_re "\u{3e}") (str.to_re "\u{27}") (str.to_re "\u{22}") (str.to_re "\u{26}")) re.all))))
(assert (< 9 (str.len X)))
(check-sat)
(get-model)